(set-logic QF_LIA)
(declare-fun x0 () Int)
(declare-fun x1 () Int)
(declare-fun x2 () Int)
(declare-fun x3 () Int)
(declare-fun x4 () Int)
(declare-fun x5 () Int)
(declare-fun x6 () Int)
(declare-fun x7 () Int)
(declare-fun x8 () Int)
(declare-fun x9 () Int)
(declare-fun A0 () Bool)
(declare-fun A4 () Bool)
(declare-fun A5 () Bool)
(declare-fun A6 () Bool)
(declare-fun A7 () Bool)
(declare-fun A8 () Bool)
(assert (let ((.def_0 (or A5 A4))) (let ((.def_1 (* (- 1) x6))) (let ((.def_2 (< .def_1 (- 1)))) (let ((.def_3 (not .def_2))) (let ((.def_4 (* (- 1) x4))) (let ((.def_5 (* 1 x6))) (let ((.def_6 (+ .def_5 .def_4))) (let ((.def_7 (< .def_6 1))) (let ((.def_8 (and .def_7 .def_3))) (let ((.def_9 (or .def_8 .def_0))) (let ((.def_10 (not .def_9))) (let ((.def_11 (not A7))) (let ((.def_12 (and A8 .def_11))) (let ((.def_13 (not .def_12))) (let ((.def_14 (* (- 1) x5))) (let ((.def_15 (* (- 1) x1))) (let ((.def_16 (+ .def_15 .def_14))) (let ((.def_17 (< .def_16 (- 1)))) (let ((.def_18 (not A0))) (let ((.def_19 (and .def_18 .def_17))) (let ((.def_20 (and .def_19 .def_13))) (let ((.def_21 (or .def_20 .def_10))) (let ((.def_22 (and .def_11 A7))) (let ((.def_23 (< .def_15 (- 1)))) (let ((.def_24 (not .def_23))) (let ((.def_25 (* 1 x8))) (let ((.def_26 (+ .def_5 .def_25))) (let ((.def_27 (< .def_26 (- 1)))) (let ((.def_28 (not .def_27))) (let ((.def_29 (and .def_28 .def_24))) (let ((.def_30 (or .def_29 .def_22))) (let ((.def_31 (* (- 1) x0))) (let ((.def_32 (* (- 1) x2))) (let ((.def_33 (+ .def_32 .def_31))) (let ((.def_34 (< .def_33 1))) (let ((.def_35 (not A8))) (let ((.def_36 (= .def_35 .def_34))) (let ((.def_37 (not .def_36))) (let ((.def_38 (not A6))) (let ((.def_39 (or A5 .def_38))) (let ((.def_40 (not .def_39))) (let ((.def_41 (and .def_40 .def_37))) (let ((.def_42 (not .def_41))) (let ((.def_43 (and .def_42 .def_30))) (let ((.def_44 (and .def_43 .def_21))) (let ((.def_45 (<= x9 1))) (let ((.def_46 (<= 0 x9))) (let ((.def_47 (<= x8 1))) (let ((.def_48 (<= 0 x8))) (let ((.def_49 (<= x7 1))) (let ((.def_50 (<= 0 x7))) (let ((.def_51 (<= x6 1))) (let ((.def_52 (<= 0 x6))) (let ((.def_53 (<= x5 1))) (let ((.def_54 (<= 0 x5))) (let ((.def_55 (<= x4 1))) (let ((.def_56 (<= 0 x4))) (let ((.def_57 (<= x3 1))) (let ((.def_58 (<= 0 x3))) (let ((.def_59 (<= x2 1))) (let ((.def_60 (<= 0 x2))) (let ((.def_61 (<= x1 1))) (let ((.def_62 (<= 0 x1))) (let ((.def_63 (<= x0 1))) (let ((.def_64 (<= 0 x0))) (let ((.def_65 (and .def_64 .def_63 .def_62 .def_61 .def_60 .def_59 .def_58 .def_57 .def_56 .def_55 .def_54 .def_53 .def_52 .def_51 .def_50 .def_49 .def_48 .def_47 .def_46 .def_45 .def_44))) .def_65)))))))))))))))))))))))))))))))))))))))))))))))))))))))))))))))))))
(check-sat)
